letting initialStacks = [39, 25, 47, 7, 42, 13, 27, 26, 18, 46, 37, 49, 41, 6, 48, 9, 35, 23, 17, 2, 34, 44, 3, 1, 40, 31, 15, 16, 4, 19, 30, 10, 28, 22, 50, 12, 14, 51, 29, 5, 36, 45, 33, 20, 11, 24, 43, 21, 32, 38, 8]
